p cnf 14 64
-2 -7 -10 0
-2 -7 12 0
-10 12 14 0
-1 -7 -8 0
-7 12 -14 0
6 -10 -14 0
-2 4 12 0
-3 6 14 0
-6 -10 -11 0
1 3 11 0
1 -5 14 0
1 -4 -10 0
2 9 10 0
2 -8 11 0
-8 11 -13 0
3 7 -10 0
-3 7 10 0
6 11 14 0
8 -10 13 0
-4 -10 -11 0
-1 2 9 0
-2 -9 -10 0
-7 9 -10 0
-5 -8 14 0
-3 9 -13 0
-6 7 11 0
-7 -12 13 0
-4 -9 -14 0
-12 13 14 0
8 9 -14 0
-8 -12 -14 0
5 6 -11 0
1 -9 14 0
-1 3 -6 0
-7 -9 -13 0
5 -8 -14 0
7 -8 12 0
4 -5 -12 0
-1 5 14 0
-1 -6 -10 0
-2 -7 11 0
1 4 -12 0
-2 10 -12 0
7 10 14 0
-5 10 -11 0
5 8 -11 0
1 10 12 0
7 -11 -12 0
2 -4 -5 0
1 -8 -10 0
3 4 -9 0
-10 -13 -14 0
5 -6 10 0
8 -10 -13 0
4 6 11 0
3 5 -14 0
1 12 13 0
6 13 -14 0
10 -11 -13 0
-7 11 -13 0
-1 7 8 0
-2 -6 12 0
-2 3 -7 0
-7 8 -13 0
